3 32 1 10
18 12 10 4 4 13 13 12 9 20 7 16 11 16 20 2 16 11 6 8 19 9 4 20 9 3 8 13 20 18 1 3 
5.19 5.66 4.07 1.76 1.25 2.54 5.13 6.72 6.46 0.33 6.14 6.38 0.62 6.58 6.36 2.81 2.77 4.98 6.82 4.06 4.5 2.06 0.64 6.26 5.96 0.14 4.51 4.3 3.61 7.69 5.11 4.75 
4 4 4 4 4 4 4 4 4 4 4 4 4 4 4 4 4 4 4 4 4 4 4 4 4 4 4 4 4 4 4 4 
3.55 2.56 0.3 1.62 7.3 7.72 2.3 4.57 2.23 0.07 0.4 1.41 5.74 3.03 7.28 3.6 3.7 2.88 6.51 7.38 2.63 2.49 3.08 6.56 2.33 7.06 2.36 3.37 4.49 0.05 2.61 2.7 
1 1 1 1 1 1 1 1 1 1 1 1 1 1 1 1 1 1 1 1 1 1 1 1 1 1 1 1 1 1 1 1 
1 1 1 1 1 1 1 1 1 1 1 1 1 1 1 1 1 1 1 1 1 1 1 1 1 1 1 1 1 1 1 1 
1 1 1 1 1 1 1 1 1 1 1 1 1 1 1 1 1 1 1 1 1 1 1 1 1 1 1 1 1 1 1 1 
0.01 0.01 0.01 0.01 0.01 0.01 0.01 0.01 0.01 0.01 0.01 0.01 0.01 0.01 0.01 0.01 0.01 0.01 0.01 0.01 0.01 0.01 0.01 0.01 0.01 0.01 0.01 0.01 0.01 0.01 0.01 0.01 
0.02 0.02 0.02 0.02 0.02 0.02 0.02 0.02 0.02 0.02 0.02 0.02 0.02 0.02 0.02 0.02 0.02 0.02 0.02 0.02 0.02 0.02 0.02 0.02 0.02 0.02 0.02 0.02 0.02 0.02 0.02 0.02 
1 1 1 1 1 1 1 1 1 1 1 1 1 1 1 1 1 1 1 1 1 1 1 1 1 1 1 1 1 1 1 1 
